
Gurobi 6.0.4 (win64) logging started 06/18/15 17:42:01

Read LP format model from file E:\Eigene Dateien\Downloads\Michi shit\VRPTWMS2\instances\mip\fuel\N6-C_DV100-C_SV25_F5_1_No_1.lp
Reading time = 0.00 seconds
(null): 253 rows, 128 columns, 957 nonzeros
Optimize a model with 253 rows, 128 columns and 957 nonzeros
Model has 216 quadratic constraints
Coefficient statistics:
  Matrix range    [1e+00, 1e+06]
  Objective range [9e+04, 1e+07]
  Bounds range    [1e+00, 1e+06]
  RHS range       [1e+00, 1e+06]
Presolve removed 39 rows and 21 columns
Presolve time: 0.02s
Presolved: 550 rows, 275 columns, 2708 nonzeros
Variable types: 168 continuous, 107 integer (83 binary)
Found heuristic solution: objective 6.211220e+07

Root relaxation: objective 1.331595e+07, 66 iterations, 0.00 seconds

    Nodes    |    Current Node    |     Objective Bounds      |     Work
 Expl Unexpl |  Obj  Depth IntInf | Incumbent    BestBd   Gap | It/Node Time

     0     0 1.3316e+07    0   21 6.2112e+07 1.3316e+07  78.6%     -    0s
H    0     0                    4.193680e+07 1.3316e+07  68.2%     -    0s
*    0     0               0    2.132630e+07 2.1326e+07  0.00%     -    0s

Cutting planes:
  Learned: 1
  Cover: 2
  Implied bound: 1
  Clique: 6
  MIR: 2
  GUB cover: 2

Explored 0 nodes (93 simplex iterations) in 0.03 seconds
Thread count was 4 (of 4 available processors)

Optimal solution found (tolerance 1.00e-04)
Best objective 2.132630000000e+07, best bound 2.132630000000e+07, gap 0.0%
k_c1	89999.99999999994
k_c2	50000.0
k_c3	120000.0
k_c4	30000.0
k_c5	79999.99999999983
k_c6	119999.99999999983
k_dN	-0.0
o_1	-0.0
o_2	-0.0
o_3	-0.0
o_4	0.0
o_5	-0.0
o_6	-0.0
p_1	-0.0
p_2	-0.0
p_3	-0.0
p_4	0.0
p_5	-0.0
p_6	0.0
phi_c1	25415.999999999978
phi_c2	15956.0
phi_c3	34513.99999999998
phi_c4	18924.999999999985
phi_c5	32986.999999999985
phi_c6	38967.999999999985
phi_d0	50000.0
phi_dN	-0.0
tauD_c1	450000.0
tauD_c2	535350.0
tauD_c3	100000.0
tauD_c4	300000.0
tauD_c5	153575.0
tauD_c6	41225.0
tauD_d0	-0.0
tauD_dN	1000000.0
tauS_c1	-0.0
tauS_c2	-0.0
tauS_c3	-0.0
tauS_c4	-0.0
tauS_c5	-0.0
tauS_c6	-0.0
tauS_d0	-0.0
tauS_dN	-0.0
x_c1_c2	1.0
x_c2_dN	1.0
x_c3_c1	1.0
x_c4_dN	1.0
x_c5_c4	1.0
x_c6_c5	1.0
x_d0_c3	1.0
x_d0_c6	1.0
